c A SAT instance generated from a 3-CNF formula that had 44 clauses and 11 variables
p cnf 11 44
-10 1 3 0
8 9 -5 0
-2 9 -1 0
4 3 -6 0
-5 -6 2 0
6 4 -1 0
-1 -3 6 0
-3 4 5 0
8 -6 -4 0
7 10 6 0
9 -11 -8 0
-2 9 5 0
9 8 -4 0
-5 -8 10 0
-6 7 -1 0
7 -2 4 0
-1 4 -7 0
7 -8 5 0
1 10 -4 0
6 11 -5 0
-11 -9 -8 0
8 -2 -3 0
-7 3 -6 0
9 4 -11 0
-7 8 6 0
-5 -9 1 0
-4 6 -3 0
-8 11 -4 0
10 3 -4 0
2 3 6 0
-4 -2 10 0
4 -6 11 0
-5 -1 2 0
1 -9 -11 0
-1 9 4 0
4 -1 2 0
3 -11 8 0
-7 -2 1 0
7 -6 -5 0
-5 -11 -2 0
-8 5 6 0
-10 9 1 0
-7 6 1 0
3 1 7 0
